
Gurobi 11.0.3 (linux64) logging started Fri Nov 22 06:25:57 2024

Set parameter LogFile to value "/home/yihong/Coding/OR_SUC/SUC_results_bigM100000_thread4/case24_ieee_rts_theta0.1_epsilon0.05_gurobi_seed850000_num_gen100_N_WDR100_load_scaling_factor1_exact_T16quadra_cost.txt"
Set parameter TimeLimit to value 3600
Gurobi Optimizer version 11.0.3 build v11.0.3rc0 (linux64 - "Ubuntu 20.04.6 LTS")

CPU model: AMD EPYC 7532 32-Core Processor, instruction set [SSE2|AVX|AVX2]
Thread count: 64 physical cores, 128 logical processors, using up to 4 threads

Optimize a model with 38307 rows, 20041 columns and 883306 nonzeros
Model fingerprint: 0x69149db3
Model has 1600 quadratic constraints
Variable types: 18341 continuous, 1700 integer (1700 binary)
Coefficient statistics:
  Matrix range     [3e-04, 1e+05]
  QMatrix range    [2e-03, 8e-03]
  QLMatrix range   [6e-02, 6e+01]
  Objective range  [1e+00, 1e+00]
  Bounds range     [1e+00, 1e+00]
  RHS range        [1e+00, 1e+05]
Presolve removed 31479 rows and 8622 columns
Presolve time: 0.31s
Presolved: 6828 rows, 11419 columns, 38545 nonzeros
Presolved model has 1600 quadratic constraint(s)
Variable types: 9738 continuous, 1681 integer (1681 binary)

Root relaxation: objective 1.944336e+04, 5584 iterations, 0.13 seconds (0.19 work units)

    Nodes    |    Current Node    |     Objective Bounds      |     Work
 Expl Unexpl |  Obj  Depth IntInf | Incumbent    BestBd   Gap | It/Node Time

     0     0 19443.3585    0   11          - 19443.3585      -     -    0s
     0     0 158020.483    0  590          - 158020.483      -     -    0s
     0     0 158232.214    0  590          - 158232.214      -     -    0s
     0     0 350387.687    0  510          - 350387.687      -     -    1s
     0     0 350486.109    0  439          - 350486.109      -     -    1s
     0     0 351141.493    0  327          - 351141.493      -     -    1s
     0     0 351142.670    0  327          - 351142.670      -     -    1s
     0     0 351144.441    0  327          - 351144.441      -     -    1s
     0     2 351146.098    0  327          - 351146.098      -     -    2s
H  631   608                    351649.52923 351156.524  0.14%  14.1    3s
*  631   608             167    351649.52923 351156.524  0.14%  14.1    3s
H  712   207                    351251.34431 351156.524  0.03%  12.9    3s
*  712   207             172    351251.34431 351163.754  0.02%  13.0    3s

Cutting planes:
  Gomory: 5
  Implied bound: 449
  MIR: 99
  Flow cover: 123
  Relax-and-lift: 2

Explored 718 nodes (25864 simplex iterations) in 4.00 seconds (5.02 work units)
Thread count was 4 (of 128 available processors)

Solution count 3: 351251 351251 351650 

Optimal solution found (tolerance 1.00e-03)
Warning: max constraint violation (5.7600e-07) exceeds tolerance
Best objective 3.512513443121e+05, best bound 3.511637536636e+05, gap 0.0249%
